SDVRP instances/custom_instances/p01_4_split0.vrp
NAME:p01_4_split
BEST_KNOWN: 0
COMMENT: 0
DIMENSION: 229
CAPACITY: 160
EDGE_WEIGHT_FORMAT: FUNCTION
EDGE_WEIGHT_TYPE: EXACT_2D
NODE_COORD_SECTION
1 0.00000 0.00000
2 42 -34
3 42 -34
4 42 -34
5 42 -34
6 -32 -11
7 -32 -11
8 -32 -11
9 -32 -11
10 -32 -11
11 -29 1
12 -29 1
13 -29 1
14 -29 1
15 32 42
16 32 42
17 32 42
18 32 42
19 32 42
20 32 42
21 -44 -1
22 -44 -1
23 -44 -1
24 -44 -1
25 -44 -1
26 -45 13
27 -45 13
28 15 39
29 15 39
30 15 39
31 44 50
32 44 50
33 44 50
34 44 50
35 44 50
36 44 50
37 3 7
38 3 7
39 3 7
40 3 7
41 43 37
42 43 37
43 43 37
44 43 37
45 -33 -41
46 -33 -41
47 -33 -41
48 -33 -41
49 -33 -41
50 -33 -41
51 23 29
52 23 29
53 23 29
54 40 36
55 40 36
56 -34 45
57 -34 45
58 -34 45
59 -34 45
60 27 -10
61 27 -10
62 27 -10
63 27 -10
64 -23 -12
65 -23 -12
66 -23 -12
67 -23 -12
68 -23 -12
69 -24 -6
70 -24 -6
71 -24 -6
72 -24 -6
73 -24 -6
74 -24 -6
75 44 -34
76 44 -34
77 44 -34
78 44 -34
79 44 -34
80 44 -34
81 -50 49
82 -50 49
83 -50 49
84 -25 -19
85 -25 -19
86 -25 -19
87 -25 -19
88 -25 -19
89 -31 -6
90 -31 -6
91 -31 -6
92 -31 -6
93 -31 -6
94 40 26
95 40 26
96 40 26
97 40 26
98 -33 -1
99 -33 -1
100 -33 -1
101 -33 -1
102 -33 -1
103 -16 19
104 -16 19
105 -16 19
106 -16 19
107 -16 19
108 -16 19
109 -16 19
110 32 6
111 32 6
112 32 6
113 32 6
114 32 6
115 25 8
116 25 8
117 25 8
118 25 8
119 25 8
120 -24 -34
121 -24 -34
122 -24 -34
123 -24 -34
124 36 -7
125 36 -7
126 36 -7
127 36 -7
128 13 16
129 13 16
130 13 16
131 13 16
132 42 20
133 42 20
134 42 20
135 42 20
136 42 20
137 42 20
138 -9 -21
139 -9 -21
140 -9 -21
141 -5 2
142 -5 2
143 -5 2
144 -5 2
145 45 0
146 45 0
147 45 0
148 45 0
149 -26 -36
150 -26 -36
151 -26 -36
152 -26 -36
153 -26 -36
154 44 -37
155 44 -37
156 44 -37
157 44 -37
158 44 -37
159 44 -37
160 44 -37
161 38 24
162 38 24
163 38 24
164 15 -8
165 15 -8
166 15 -8
167 15 -8
168 15 -8
169 15 -8
170 26 21
171 26 21
172 26 21
173 26 21
174 -31 -28
175 -31 -28
176 -31 -28
177 -31 -28
178 -31 -28
179 -31 -28
180 -12 -46
181 -12 -46
182 -12 -46
183 -12 -46
184 -12 -46
185 10 -12
186 10 -12
187 10 -12
188 10 -12
189 -44 3
190 -44 3
191 -44 3
192 -44 3
193 -44 3
194 43 -37
195 43 -37
196 43 -37
197 19 -4
198 19 -4
199 19 -4
200 19 -4
201 19 -4
202 19 -4
203 9 11
204 9 11
205 9 11
206 -44 2
207 -44 2
208 -44 2
209 -44 2
210 -36 -4
211 -36 -4
212 -36 -4
213 -36 -4
214 -36 -4
215 -15 -23
216 -15 -23
217 -15 -23
218 -15 -23
219 -15 -23
220 -15 -23
221 32 43
222 32 43
223 32 43
224 32 43
225 32 43
226 13 -23
227 13 -23
228 13 -23
229 13 -23
DEMAND_SECTION
1 0
2 32
3 16
4 2
5 2
6 16
7 8
8 2
9 2
10 1
11 16
12 8
13 2
14 1
15 32
16 32
17 2
18 2
19 2
20 1
21 32
22 32
23 2
24 2
25 2
26 32
27 2
28 16
29 2
30 2
31 16
32 8
33 2
34 2
35 2
36 1
37 16
38 8
39 2
40 1
41 32
42 16
43 2
44 1
45 32
46 16
47 8
48 2
49 2
50 2
51 32
52 32
53 8
54 32
55 32
56 32
57 2
58 2
59 2
60 32
61 8
62 2
63 2
64 32
65 32
66 8
67 2
68 1
69 32
70 32
71 8
72 2
73 2
74 1
75 32
76 8
77 2
78 2
79 2
80 1
81 32
82 8
83 2
84 32
85 16
86 2
87 2
88 1
89 32
90 8
91 2
92 2
93 1
94 32
95 16
96 8
97 1
98 32
99 32
100 8
101 2
102 1
103 32
104 16
105 8
106 2
107 2
108 2
109 1
110 32
111 32
112 2
113 2
114 1
115 32
116 16
117 2
118 2
119 1
120 32
121 16
122 2
123 1
124 32
125 2
126 2
127 1
128 32
129 32
130 8
131 2
132 32
133 32
134 2
135 2
136 2
137 1
138 32
139 16
140 8
141 32
142 8
143 2
144 1
145 32
146 16
147 2
148 2
149 16
150 8
151 2
152 2
153 2
154 32
155 32
156 8
157 2
158 2
159 2
160 1
161 32
162 8
163 1
164 32
165 32
166 2
167 2
168 2
169 1
170 16
171 8
172 2
173 2
174 32
175 32
176 8
177 2
178 2
179 1
180 32
181 32
182 8
183 2
184 1
185 32
186 16
187 2
188 2
189 32
190 2
191 2
192 2
193 1
194 16
195 8
196 1
197 16
198 8
199 2
200 2
201 2
202 1
203 32
204 16
205 1
206 32
207 16
208 2
209 1
210 16
211 8
212 2
213 2
214 1
215 32
216 16
217 8
218 2
219 2
220 2
221 32
222 16
223 8
224 2
225 1
226 32
227 32
228 8
229 1
DEPOT_SECTION
1
-1
EOF