SDVRP instances/custom_instances/p01_4_split0.sol
228 -11 99 97 22 21 23 24 20 210 209 212 211 213 -15 16 14 18 17 19 220 224 221 223 222 29 27 28 -25 26 189 188 190 192 191 208 206 207 205 100 101 98 -38 37 39 36 127 128 130 129 204 203 202 -49 44 45 46 47 48 178 176 177 173 175 174 85 87 86 84 -52 50 51 169 170 118 116 117 114 115 -65 63 66 64 67 71 69 72 73 68 70 -83 5 6 7 8 9 89 91 90 92 88 10 12 13 140 143 -108 106 102 103 104 105 107 55 57 56 58 80 82 81 142 141 -110 109 112 113 111 147 145 144 146 124 123 125 126 198 -119 120 122 121 149 150 148 151 152 183 181 179 180 182 -136 135 134 131 132 133 96 95 93 94 160 -138 137 139 218 219 216 214 215 217 -161 162 42 43 41 40 32 34 33 31 35 30 53 54 171 172 -166 79 78 76 74 75 77 157 154 159 156 155 158 153 195 193 194 -167 164 4 1 3 2 61 59 62 60 196 197 201 200 199 -168 165 163 227 228 226 225 186 185 184 187 0 





OBJ=
1612.970
BEST_KNOWN=
0.000